instances/shortest_path/discrete_knapsack_uncertainty/nohadani_7_17.lp
\ Model nohadani_7_17
\ LP format - for model browsing. Use MPS format to capture full model detail.
\ Signature: 0x917f322750627386
Minimize
  7.211102550927978 y[0,1] + 53.33854141237835 y[0,2]
   + 41.78516483155236 y[0,4] + 53.75872022286245 y[0,5]
   + 13.45362404707371 y[0,6] + 7.211102550927978 y[1,0]
   + 46.95742752749558 y[1,2] + 38.07886552931954 y[1,4]
   + 48.76474136094644 y[1,5] + 16.76305461424021 y[1,6]
   + 53.33854141237835 y[2,0] + 46.95742752749558 y[2,1]
   + 76.96752561957543 y[2,3] + 62.16912416947821 y[2,4]
   + 60.83584469702052 y[2,5] + 52.32590180780452 y[2,6]
   + 76.96752561957543 y[3,2] + 76.48529270389177 y[3,6]
   + 41.78516483155236 y[4,0] + 38.07886552931954 y[4,1]
   + 62.16912416947821 y[4,2] + 15.23154621172782 y[4,5]
   + 54.56189146281496 y[4,6] + 53.75872022286245 y[5,0]
   + 48.76474136094644 y[5,1] + 60.83584469702052 y[5,2]
   + 15.23154621172782 y[5,4] + 65.52098900352466 y[5,6]
   + 13.45362404707371 y[6,0] + 16.76305461424021 y[6,1]
   + 52.32590180780452 y[6,2] + 76.48529270389177 y[6,3]
   + 54.56189146281496 y[6,4] + 65.52098900352466 y[6,5] + x[0,1] + x[0,2]
   + x[0,4] + x[0,5] + x[0,6] + x[1,0] + x[1,2] + x[1,4] + x[1,5] + x[1,6]
   + x[2,0] + x[2,1] + x[2,3] + x[2,4] + x[2,5] + x[2,6] + x[3,2] + x[3,6]
   + x[4,0] + x[4,1] + x[4,2] + x[4,5] + x[4,6] + x[5,0] + x[5,1] + x[5,2]
   + x[5,4] + x[5,6] + x[6,0] + x[6,1] + x[6,2] + x[6,3] + x[6,4] + x[6,5]
   + 0.7211102550927979 r[0,1] + 5.333854141237835 r[0,2]
   + 4.178516483155236 r[0,4] + 5.375872022286245 r[0,5]
   + 1.345362404707371 r[0,6] + 0.7211102550927979 r[1,0]
   + 4.695742752749559 r[1,2] + 3.807886552931954 r[1,4]
   + 4.876474136094644 r[1,5] + 1.676305461424021 r[1,6]
   + 5.333854141237835 r[2,0] + 4.695742752749559 r[2,1]
   + 7.696752561957543 r[2,3] + 6.216912416947821 r[2,4]
   + 6.083584469702052 r[2,5] + 5.232590180780452 r[2,6]
   + 7.696752561957543 r[3,2] + 7.648529270389178 r[3,6]
   + 4.178516483155236 r[4,0] + 3.807886552931954 r[4,1]
   + 6.216912416947821 r[4,2] + 1.523154621172782 r[4,5]
   + 5.456189146281496 r[4,6] + 5.375872022286245 r[5,0]
   + 4.876474136094644 r[5,1] + 6.083584469702052 r[5,2]
   + 1.523154621172782 r[5,4] + 6.552098900352466 r[5,6]
   + 1.345362404707371 r[6,0] + 1.676305461424021 r[6,1]
   + 5.232590180780452 r[6,2] + 7.648529270389178 r[6,3]
   + 5.456189146281496 r[6,4] + 6.552098900352466 r[6,5]
Subject To
 flow_cons_inner_nodes[0]: - y[0,1] - y[0,2] - y[0,4] - y[0,5] - y[0,6]
   + y[1,0] + y[2,0] + y[4,0] + y[5,0] + y[6,0] = 0
 flow_cons_inner_nodes[1]: y[0,1] - y[1,0] - y[1,2] - y[1,4] - y[1,5]
   - y[1,6] + y[2,1] + y[4,1] + y[5,1] + y[6,1] = 0
 flow_cons_inner_nodes[2]: y[0,2] + y[1,2] - y[2,0] - y[2,1] - y[2,3]
   - y[2,4] - y[2,5] - y[2,6] + y[3,2] + y[4,2] + y[5,2] + y[6,2] = 0
 flow_cons_inner_nodes[4]: y[0,4] + y[1,4] + y[2,4] - y[4,0] - y[4,1]
   - y[4,2] - y[4,5] - y[4,6] + y[5,4] + y[6,4] = 0
 flow_cons_inner_nodes[6]: y[0,6] + y[1,6] + y[2,6] + y[3,6] + y[4,6]
   + y[5,6] - y[6,0] - y[6,1] - y[6,2] - y[6,3] - y[6,4] - y[6,5] = 0
 flow_cons_source: - y[2,3] + y[3,2] + y[3,6] - y[6,3] = 1
 flow_cons_target: y[0,5] + y[1,5] + y[2,5] + y[4,5] - y[5,0] - y[5,1]
   - y[5,2] - y[5,4] - y[5,6] + y[6,5] = 1
 primal_lower: 3.387875533746447 x[0,1] + 1.070337036048601 x[0,2]
   + 4.755885923345677 x[0,4] + 4.25737649587188 x[0,5]
   + 3.796688892981705 x[0,6] + 2.828157926752886 x[1,0]
   + 3.345568094098229 x[1,2] + 1.903240574769738 x[1,4]
   + 0.7823892894894365 x[1,5] + 1.875311901588495 x[1,6]
   + 3.552048393765309 x[2,0] + 3.29998211541811 x[2,1]
   + 0.5983028162960439 x[2,3] + 0.4549728879513672 x[2,4]
   + 2.599237268724788 x[2,5] + 2.377106952758038 x[2,6]
   + 0.1869009035345513 x[3,2] + 3.373163616451006 x[3,6]
   + 4.149868158476348 x[4,0] + 4.616876693672832 x[4,1]
   + 2.685761325447656 x[4,2] + 0.7237152619474295 x[4,5]
   + 3.51458233148018 x[4,6] + 4.829812886212595 x[5,0]
   + 1.837649366195169 x[5,1] + 2.568652807256096 x[5,2]
   + 4.29486077595206 x[5,4] + 2.427587475386523 x[5,6]
   + 3.47432213433331 x[6,0] + 4.994942922225751 x[6,1]
   + 3.850549493367827 x[6,2] + 1.415975943503602 x[6,3]
   + 1.400600558870405 x[6,4] + 1.984739833670905 x[6,5] + 72 u[0,1]
   + 25 u[0,2] + 43 u[0,4] + 96 u[0,5] + 89 u[0,6] + 90 u[1,0] + 6 u[1,2]
   + 32 u[1,4] + 98 u[1,5] + 95 u[1,6] + 52 u[2,0] + 32 u[2,1] + 17 u[2,3]
   + 9 u[2,4] + 85 u[2,5] + 21 u[2,6] + 82 u[3,2] + 89 u[3,6] + 82 u[4,0]
   + 91 u[4,1] + 98 u[4,2] + 64 u[4,5] + 33 u[4,6] + 91 u[5,0] + 9 u[5,1]
   + 5 u[5,2] + 23 u[5,4] + 44 u[5,6] + 30 u[6,0] + 48 u[6,1] + 70 u[6,2]
   + 84 u[6,3] + 96 u[6,4] + 26 u[6,5] <= 175
 mccormick1[0,1]: - u[0,1] + r[0,1] <= 0
 mccormick1[0,2]: - u[0,2] + r[0,2] <= 0
 mccormick1[0,4]: - u[0,4] + r[0,4] <= 0
 mccormick1[0,5]: - u[0,5] + r[0,5] <= 0
 mccormick1[0,6]: - u[0,6] + r[0,6] <= 0
 mccormick1[1,0]: - u[1,0] + r[1,0] <= 0
 mccormick1[1,2]: - u[1,2] + r[1,2] <= 0
 mccormick1[1,4]: - u[1,4] + r[1,4] <= 0
 mccormick1[1,5]: - u[1,5] + r[1,5] <= 0
 mccormick1[1,6]: - u[1,6] + r[1,6] <= 0
 mccormick1[2,0]: - u[2,0] + r[2,0] <= 0
 mccormick1[2,1]: - u[2,1] + r[2,1] <= 0
 mccormick1[2,3]: - u[2,3] + r[2,3] <= 0
 mccormick1[2,4]: - u[2,4] + r[2,4] <= 0
 mccormick1[2,5]: - u[2,5] + r[2,5] <= 0
 mccormick1[2,6]: - u[2,6] + r[2,6] <= 0
 mccormick1[3,2]: - u[3,2] + r[3,2] <= 0
 mccormick1[3,6]: - u[3,6] + r[3,6] <= 0
 mccormick1[4,0]: - u[4,0] + r[4,0] <= 0
 mccormick1[4,1]: - u[4,1] + r[4,1] <= 0
 mccormick1[4,2]: - u[4,2] + r[4,2] <= 0
 mccormick1[4,5]: - u[4,5] + r[4,5] <= 0
 mccormick1[4,6]: - u[4,6] + r[4,6] <= 0
 mccormick1[5,0]: - u[5,0] + r[5,0] <= 0
 mccormick1[5,1]: - u[5,1] + r[5,1] <= 0
 mccormick1[5,2]: - u[5,2] + r[5,2] <= 0
 mccormick1[5,4]: - u[5,4] + r[5,4] <= 0
 mccormick1[5,6]: - u[5,6] + r[5,6] <= 0
 mccormick1[6,0]: - u[6,0] + r[6,0] <= 0
 mccormick1[6,1]: - u[6,1] + r[6,1] <= 0
 mccormick1[6,2]: - u[6,2] + r[6,2] <= 0
 mccormick1[6,3]: - u[6,3] + r[6,3] <= 0
 mccormick1[6,4]: - u[6,4] + r[6,4] <= 0
 mccormick1[6,5]: - u[6,5] + r[6,5] <= 0
 mccormick2[0,1]: - y[0,1] + r[0,1] <= 0
 mccormick2[0,2]: - y[0,2] + r[0,2] <= 0
 mccormick2[0,4]: - y[0,4] + r[0,4] <= 0
 mccormick2[0,5]: - y[0,5] + r[0,5] <= 0
 mccormick2[0,6]: - y[0,6] + r[0,6] <= 0
 mccormick2[1,0]: - y[1,0] + r[1,0] <= 0
 mccormick2[1,2]: - y[1,2] + r[1,2] <= 0
 mccormick2[1,4]: - y[1,4] + r[1,4] <= 0
 mccormick2[1,5]: - y[1,5] + r[1,5] <= 0
 mccormick2[1,6]: - y[1,6] + r[1,6] <= 0
 mccormick2[2,0]: - y[2,0] + r[2,0] <= 0
 mccormick2[2,1]: - y[2,1] + r[2,1] <= 0
 mccormick2[2,3]: - y[2,3] + r[2,3] <= 0
 mccormick2[2,4]: - y[2,4] + r[2,4] <= 0
 mccormick2[2,5]: - y[2,5] + r[2,5] <= 0
 mccormick2[2,6]: - y[2,6] + r[2,6] <= 0
 mccormick2[3,2]: - y[3,2] + r[3,2] <= 0
 mccormick2[3,6]: - y[3,6] + r[3,6] <= 0
 mccormick2[4,0]: - y[4,0] + r[4,0] <= 0
 mccormick2[4,1]: - y[4,1] + r[4,1] <= 0
 mccormick2[4,2]: - y[4,2] + r[4,2] <= 0
 mccormick2[4,5]: - y[4,5] + r[4,5] <= 0
 mccormick2[4,6]: - y[4,6] + r[4,6] <= 0
 mccormick2[5,0]: - y[5,0] + r[5,0] <= 0
 mccormick2[5,1]: - y[5,1] + r[5,1] <= 0
 mccormick2[5,2]: - y[5,2] + r[5,2] <= 0
 mccormick2[5,4]: - y[5,4] + r[5,4] <= 0
 mccormick2[5,6]: - y[5,6] + r[5,6] <= 0
 mccormick2[6,0]: - y[6,0] + r[6,0] <= 0
 mccormick2[6,1]: - y[6,1] + r[6,1] <= 0
 mccormick2[6,2]: - y[6,2] + r[6,2] <= 0
 mccormick2[6,3]: - y[6,3] + r[6,3] <= 0
 mccormick2[6,4]: - y[6,4] + r[6,4] <= 0
 mccormick2[6,5]: - y[6,5] + r[6,5] <= 0
 mccormick3[0,1]: - y[0,1] - u[0,1] + r[0,1] >= -1
 mccormick3[0,2]: - y[0,2] - u[0,2] + r[0,2] >= -1
 mccormick3[0,4]: - y[0,4] - u[0,4] + r[0,4] >= -1
 mccormick3[0,5]: - y[0,5] - u[0,5] + r[0,5] >= -1
 mccormick3[0,6]: - y[0,6] - u[0,6] + r[0,6] >= -1
 mccormick3[1,0]: - y[1,0] - u[1,0] + r[1,0] >= -1
 mccormick3[1,2]: - y[1,2] - u[1,2] + r[1,2] >= -1
 mccormick3[1,4]: - y[1,4] - u[1,4] + r[1,4] >= -1
 mccormick3[1,5]: - y[1,5] - u[1,5] + r[1,5] >= -1
 mccormick3[1,6]: - y[1,6] - u[1,6] + r[1,6] >= -1
 mccormick3[2,0]: - y[2,0] - u[2,0] + r[2,0] >= -1
 mccormick3[2,1]: - y[2,1] - u[2,1] + r[2,1] >= -1
 mccormick3[2,3]: - y[2,3] - u[2,3] + r[2,3] >= -1
 mccormick3[2,4]: - y[2,4] - u[2,4] + r[2,4] >= -1
 mccormick3[2,5]: - y[2,5] - u[2,5] + r[2,5] >= -1
 mccormick3[2,6]: - y[2,6] - u[2,6] + r[2,6] >= -1
 mccormick3[3,2]: - y[3,2] - u[3,2] + r[3,2] >= -1
 mccormick3[3,6]: - y[3,6] - u[3,6] + r[3,6] >= -1
 mccormick3[4,0]: - y[4,0] - u[4,0] + r[4,0] >= -1
 mccormick3[4,1]: - y[4,1] - u[4,1] + r[4,1] >= -1
 mccormick3[4,2]: - y[4,2] - u[4,2] + r[4,2] >= -1
 mccormick3[4,5]: - y[4,5] - u[4,5] + r[4,5] >= -1
 mccormick3[4,6]: - y[4,6] - u[4,6] + r[4,6] >= -1
 mccormick3[5,0]: - y[5,0] - u[5,0] + r[5,0] >= -1
 mccormick3[5,1]: - y[5,1] - u[5,1] + r[5,1] >= -1
 mccormick3[5,2]: - y[5,2] - u[5,2] + r[5,2] >= -1
 mccormick3[5,4]: - y[5,4] - u[5,4] + r[5,4] >= -1
 mccormick3[5,6]: - y[5,6] - u[5,6] + r[5,6] >= -1
 mccormick3[6,0]: - y[6,0] - u[6,0] + r[6,0] >= -1
 mccormick3[6,1]: - y[6,1] - u[6,1] + r[6,1] >= -1
 mccormick3[6,2]: - y[6,2] - u[6,2] + r[6,2] >= -1
 mccormick3[6,3]: - y[6,3] - u[6,3] + r[6,3] >= -1
 mccormick3[6,4]: - y[6,4] - u[6,4] + r[6,4] >= -1
 mccormick3[6,5]: - y[6,5] - u[6,5] + r[6,5] >= -1
Bounds
Binaries
 y[0,1] y[0,2] y[0,4] y[0,5] y[0,6] y[1,0] y[1,2] y[1,4] y[1,5] y[1,6]
 y[2,0] y[2,1] y[2,3] y[2,4] y[2,5] y[2,6] y[3,2] y[3,6] y[4,0] y[4,1]
 y[4,2] y[4,5] y[4,6] y[5,0] y[5,1] y[5,2] y[5,4] y[5,6] y[6,0] y[6,1]
 y[6,2] y[6,3] y[6,4] y[6,5] x[0,1] x[0,2] x[0,4] x[0,5] x[0,6] x[1,0]
 x[1,2] x[1,4] x[1,5] x[1,6] x[2,0] x[2,1] x[2,3] x[2,4] x[2,5] x[2,6]
 x[3,2] x[3,6] x[4,0] x[4,1] x[4,2] x[4,5] x[4,6] x[5,0] x[5,1] x[5,2]
 x[5,4] x[5,6] x[6,0] x[6,1] x[6,2] x[6,3] x[6,4] x[6,5] u[0,1] u[0,2]
 u[0,4] u[0,5] u[0,6] u[1,0] u[1,2] u[1,4] u[1,5] u[1,6] u[2,0] u[2,1]
 u[2,3] u[2,4] u[2,5] u[2,6] u[3,2] u[3,6] u[4,0] u[4,1] u[4,2] u[4,5]
 u[4,6] u[5,0] u[5,1] u[5,2] u[5,4] u[5,6] u[6,0] u[6,1] u[6,2] u[6,3]
 u[6,4] u[6,5] r[0,1] r[0,2] r[0,4] r[0,5] r[0,6] r[1,0] r[1,2] r[1,4]
 r[1,5] r[1,6] r[2,0] r[2,1] r[2,3] r[2,4] r[2,5] r[2,6] r[3,2] r[3,6]
 r[4,0] r[4,1] r[4,2] r[4,5] r[4,6] r[5,0] r[5,1] r[5,2] r[5,4] r[5,6]
 r[6,0] r[6,1] r[6,2] r[6,3] r[6,4] r[6,5]
End
