instances/shortest_path/discrete_knapsack_uncertainty/nohadani_7_17.kp
44687
175

[3.387875533746447 1.0703370360486009 4.755885923345677 4.25737649587188 3.7966888929817046 2.8281579267528856 3.3455680940982293 1.903240574769738 0.7823892894894365 1.8753119015884947 3.5520483937653093 3.29998211541811 0.5983028162960439 0.4549728879513672 2.5992372687247878 2.3771069527580377 0.18690090353455133 3.3731636164510057 4.149868158476348 4.6168766936728325 2.6857613254476562 0.7237152619474295 3.51458233148018 4.829812886212595 1.8376493661951692 2.5686528072560963 4.29486077595206 2.4275874753865225 3.47432213433331 4.994942922225751 3.850549493367827 1.4159759435036021 1.4006005588704051 1.984739833670905]

[72 25 43 96 89 90 6 32 98 95 52 32 17 9 85 21 82 89 82 91 98 64 33 91 9 5 23 44 30 48 70 84 96 26]
